sat
(((T 1 1) 1)
 ((T 1 2) 0)
 ((T 1 3) 0)
 ((T 1 4) 0)
 ((T 1 5) 1)
 ((T 2 1) 2)
 ((T 2 2) 3)
 ((T 2 3) 0)
 ((T 2 4) 0)
 ((T 2 5) 3)
 ((T 3 1) 0)
 ((T 3 2) 0)
 ((T 3 3) 0)
 ((T 3 4) 0)
 ((T 3 5) 0)
 ((T 4 1) 0)
 ((T 4 2) 0)
 ((T 4 3) 0)
 ((T 4 4) 0)
 ((T 4 5) 0)
 ((T 5 1) 2)
 ((T 5 2) 3)
 ((T 5 3) 0)
 ((T 5 4) 2)
 ((T 5 5) 1))
